system
1.0
       12.5094405658       -21.6669907071         0.0000000000
       12.5094440930        21.6669886707         0.0000000000
        0.0000000000        -0.0000000000         6.8546156883
    W    S    B    N   Se
  113  160  484  572  128
Cartesian
     0.000000000        -0.000000000         3.463427170
    11.391516384        19.730681444         3.463427170
    11.391507918       -19.730686332         3.463427170
    22.783024302        -0.000004888         3.463427170
     8.136797417        14.093343888         3.463427170
    19.528305335        -5.637342444         3.463427170
     4.882078450         8.456006333         3.463427170
    16.273586368       -11.274679999         3.463427170
     8.136791370       -14.093347380         3.463427170
    19.528307754         5.637334064         3.463427170
    16.273588787        -0.000003492         3.463427170
    13.018869820        -5.637341047         3.463427170
     4.882074822        -8.456008428         3.463427170
    16.273591206        11.274673016         3.463427170
    13.018872239         5.637335460         3.463427170
     9.764153272        -0.000002095         3.463427170
     1.627359483         2.818668778         3.463427170
    13.018867401       -16.912017554         3.463427170
     9.764156901        16.912012666         3.463427170
    21.155664818        -2.818673666         3.463427170
     9.764150853       -11.274678602         3.463427170
    17.900948270         2.818665286         3.463427170
     6.509434305        -5.637339650         3.463427170
    14.646231722         8.456004238         3.463427170
     6.509437934        11.274675111         3.463427170
    17.900945851        -8.456011221         3.463427170
    14.646229303        -2.818672269         3.463427170
    11.391512756         2.818666683         3.463427170
     1.627358274        -2.818669476         3.463427170
    13.018874658        16.912011968         3.463427170
     9.764155691        11.274674412         3.463427170
     6.509436724         5.637336857         3.463427170
     9.764149644       -16.912016856         3.463427170
    21.155666028         2.818664588         3.463427170
    17.900947061        -2.818672968         3.463427170
    14.646228094        -8.456010523         3.463427170
     3.254717757        -0.000000698         3.463427170
    11.391515175        14.093343190         3.463427170
    11.391509127       -14.093348078         3.463427170
    19.528306544        -0.000004190         3.463427170
     8.136796208         8.456005635         3.463427170
    16.273587577        -5.637341745         3.463427170
     6.509433096       -11.274677904         3.463427170
    17.900949480         8.456003540         3.463427170
    14.646230513         2.818665984         3.463427170
    11.391511546        -2.818671571         3.463427170
     8.136792579        -8.456009126         3.463427170
    16.273589996         5.637334762         3.463427170
    13.018871030        -0.000002793         3.463427170
     3.254718967         5.637337555         3.463427170
    14.646226884       -14.093348777         3.463427170
    11.391510337        -8.456009825         3.463427170
     8.136793789        -2.818670873         3.463427170
     4.882077241         2.818668079         3.463427170
    13.018868610       -11.274679301         3.463427170
     9.764152063        -5.637340349         3.463427170
     3.254716548        -5.637338952         3.463427170
    14.646232932        14.093342492         3.463427170
    11.391513965         8.456004936         3.463427170
     8.136794998         2.818667381         3.463427170
     4.882076031        -2.818670174         3.463427170
    13.018873449        11.274673714         3.463427170
     9.764154482         5.637336159         3.463427170
     6.509435515        -0.000001397         3.463427170
     1.627359080         0.939557906        10.393573783
     9.764156498        15.032901794        10.393573783
     6.509437531         9.395564239        10.393573783
     9.764150450       -13.153789474        10.393573783
    17.900947867         0.939554414        10.393573783
    14.646228900        -4.697783141        10.393573783
     6.509433902        -7.516450522        10.393573783
    14.646231319         6.576893366        10.393573783
    11.391512352         0.939555811        10.393573783
     3.254718564         3.758226683        10.393573783
    11.391515981        17.851570572        10.393573783
    11.391509933       -10.335120697        10.393573783
    19.528307351         3.758223192        10.393573783
     8.136793386        -4.697781745        10.393573783
    16.273590803         9.395562144        10.393573783
     8.136797014        12.214233016        10.393573783
    16.273588384        -1.879114364        10.393573783
    13.018871836         3.758224588        10.393573783
     3.254717354        -1.879111570        10.393573783
    11.391514771        12.214232318        10.393573783
     8.136795805         6.576894763        10.393573783
    11.391508724       -15.972458950        10.393573783
    19.528306141        -1.879115062        10.393573783
    16.273587174        -7.516452617        10.393573783
     4.882076838         0.939557207        10.393573783
    13.018874255        15.032901096        10.393573783
    13.018868207       -13.153790173        10.393573783
    21.155665625         0.939553716        10.393573783
     9.764155288         9.395563540        10.393573783
    17.900946658        -4.697783840        10.393573783
     8.136792176       -10.335119998        10.393573783
    16.273589593         3.758223890        10.393573783
    13.018870626        -1.879113665        10.393573783
     9.764151659        -7.516451221        10.393573783
    17.900949077         6.576892668        10.393573783
    14.646230110         0.939555112        10.393573783
     4.882078047         6.576895461        10.393573783
    13.018869417        -7.516451919        10.393573783
     9.764152869        -1.879112967        10.393573783
     6.509436321         3.758225985        10.393573783
    14.646227691       -10.335121395        10.393573783
    11.391511143        -4.697782443        10.393573783
     4.882075628        -4.697781046        10.393573783
    13.018873045         9.395562842        10.393573783
     9.764154078         3.758225287        10.393573783
     6.509435112        -1.879112269        10.393573783
    14.646232529        12.214231620        10.393573783
    11.391513562         6.576894064        10.393573783
     8.136794595         0.939556509        10.393573783
     1.627359080         0.939557906         1.914008919
     9.764156498        15.032901794         1.914008919
     6.509437531         9.395564239         1.914008919
     9.764150450       -13.153789474         1.914008919
    17.900947867         0.939554414         1.914008919
    14.646228900        -4.697783141         1.914008919
     6.509433902        -7.516450522         1.914008919
    14.646231319         6.576893366         1.914008919
    11.391512352         0.939555811         1.914008919
     3.254718564         3.758226683         1.914008919
    11.391515981        17.851570572         1.914008919
    11.391509933       -10.335120697         1.914008919
    19.528307351         3.758223192         1.914008919
     8.136793386        -4.697781745         1.914008919
    16.273590803         9.395562144         1.914008919
     8.136797014        12.214233016         1.914008919
    16.273588384        -1.879114364         1.914008919
    13.018871836         3.758224588         1.914008919
     3.254717354        -1.879111570         1.914008919
    11.391514771        12.214232318         1.914008919
     8.136795805         6.576894763         1.914008919
    11.391508724       -15.972458950         1.914008919
    19.528306141        -1.879115062         1.914008919
    16.273587174        -7.516452617         1.914008919
     4.882076838         0.939557207         1.914008919
    13.018874255        15.032901096         1.914008919
    13.018868207       -13.153790173         1.914008919
    21.155665625         0.939553716         1.914008919
     9.764155288         9.395563540         1.914008919
    17.900946658        -4.697783840         1.914008919
     8.136792176       -10.335119998         1.914008919
    16.273589593         3.758223890         1.914008919
    13.018870626        -1.879113665         1.914008919
     9.764151659        -7.516451221         1.914008919
    17.900949077         6.576892668         1.914008919
    14.646230110         0.939555112         1.914008919
     4.882078047         6.576895461         1.914008919
    13.018869417        -7.516451919         1.914008919
     9.764152869        -1.879112967         1.914008919
     6.509436321         3.758225985         1.914008919
    14.646227691       -10.335121395         1.914008919
    11.391511143        -4.697782443         1.914008919
     4.882075628        -4.697781046         1.914008919
    13.018873045         9.395562842         1.914008919
     9.764154078         3.758225287         1.914008919
     6.509435112        -1.879112269         1.914008919
    14.646232529        12.214231620         1.914008919
    11.391513562         6.576894064         1.914008919
     8.136794595         0.939556509         1.914008919
     1.627359080         0.939557906         5.012500076
     9.764156498        15.032901794         5.012500076
     6.509437531         9.395564239         5.012500076
     9.764150450       -13.153789474         5.012500076
    17.900947867         0.939554414         5.012500076
    14.646228900        -4.697783141         5.012500076
     6.509433902        -7.516450522         5.012500076
    14.646231319         6.576893366         5.012500076
    11.391512352         0.939555811         5.012500076
     3.254718564         3.758226683         5.012500076
    11.391515981        17.851570572         5.012500076
    11.391509933       -10.335120697         5.012500076
    19.528307351         3.758223192         5.012500076
     8.136793386        -4.697781745         5.012500076
    16.273590803         9.395562144         5.012500076
     8.136797014        12.214233016         5.012500076
    16.273588384        -1.879114364         5.012500076
    13.018871836         3.758224588         5.012500076
     3.254717354        -1.879111570         5.012500076
    11.391514771        12.214232318         5.012500076
     8.136795805         6.576894763         5.012500076
    11.391508724       -15.972458950         5.012500076
    19.528306141        -1.879115062         5.012500076
    16.273587174        -7.516452617         5.012500076
     4.882076838         0.939557207         5.012500076
    13.018874255        15.032901096         5.012500076
    13.018868207       -13.153790173         5.012500076
    21.155665625         0.939553716         5.012500076
     9.764155288         9.395563540         5.012500076
    17.900946658        -4.697783840         5.012500076
     8.136792176       -10.335119998         5.012500076
    16.273589593         3.758223890         5.012500076
    13.018870626        -1.879113665         5.012500076
     9.764151659        -7.516451221         5.012500076
    17.900949077         6.576892668         5.012500076
    14.646230110         0.939555112         5.012500076
     4.882078047         6.576895461         5.012500076
    13.018869417        -7.516451919         5.012500076
     9.764152869        -1.879112967         5.012500076
     6.509436321         3.758225985         5.012500076
    14.646227691       -10.335121395         5.012500076
    11.391511143        -4.697782443         5.012500076
     4.882075628        -4.697781046         5.012500076
    13.018873045         9.395562842         5.012500076
     9.764154078         3.758225287         5.012500076
     6.509435112        -1.879112269         5.012500076
    14.646232529        12.214231620         5.012500076
    11.391513562         6.576894064         5.012500076
     8.136794595         0.939556509         5.012500076
    -1.627358677         0.939558604         1.914008919
    -1.627358677         0.939558604         5.012500076
    -0.000000403        -1.879110872         1.914008919
    -0.000000403        -1.879110872         5.012500076
     9.764157707        20.670240048         1.914008919
     9.764157707        20.670240048         5.012500076
    13.018875464        20.670239349         1.914008919
    13.018875464        20.670239349         5.012500076
     9.764149240       -18.791127728         1.914008919
     9.764149240       -18.791127728         5.012500076
    11.391507514       -21.609797204         1.914008919
    11.391507514       -21.609797204         5.012500076
    13.018866998       -18.791128426         1.914008919
    13.018866998       -18.791128426         5.012500076
    22.783023899        -1.879115760         1.914008919
    22.783023899        -1.879115760         5.012500076
    24.410383382         0.939553017         1.914008919
    24.410383382         0.939553017         5.012500076
     6.509438740        15.032902492         1.914008919
     6.509438740        15.032902492         5.012500076
    19.528304932        -7.516453316         1.914008919
    19.528304932        -7.516453316         5.012500076
    21.155664415        -4.697784538         1.914008919
    21.155664415        -4.697784538         5.012500076
     3.254719773         9.395564937         1.914008919
     3.254719773         9.395564937         5.012500076
    16.273585965       -13.153790871         1.914008919
    16.273585965       -13.153790871         5.012500076
    17.900945448       -10.335122093         1.914008919
    17.900945448       -10.335122093         5.012500076
     6.509432693       -13.153788776         1.914008919
     6.509432693       -13.153788776         5.012500076
     8.136790966       -15.972458252         1.914008919
     8.136790966       -15.972458252         5.012500076
    21.155666834         6.576891969         1.914008919
    21.155666834         6.576891969         5.012500076
     3.254716145        -7.516449824         1.914008919
     3.254716145        -7.516449824         5.012500076
     4.882074419       -10.335119300         1.914008919
     4.882074419       -10.335119300         5.012500076
    17.900950286        12.214230921         1.914008919
    17.900950286        12.214230921         5.012500076
     0.000000806         3.758227382         1.914008919
     0.000000806         3.758227382         5.012500076
    14.646226481       -15.972459649         1.914008919
    14.646226481       -15.972459649         5.012500076
     8.136798224        17.851571270         1.914008919
     8.136798224        17.851571270         5.012500076
     4.882079257        12.214233715         1.914008919
     4.882079257        12.214233715         5.012500076
     1.627357871        -4.697780348         1.914008919
     1.627357871        -4.697780348         5.012500076
    14.646233738        17.851569873         1.914008919
    14.646233738        17.851569873         5.012500076
    22.783025108         3.758222493         1.914008919
    22.783025108         3.758222493         5.012500076
    19.528308560         9.395561445         1.914008919
    19.528308560         9.395561445         5.012500076
     1.627360290         6.576896159         1.914008919
     1.627360290         6.576896159         5.012500076
    16.273592012        15.032900397         1.914008919
    16.273592012        15.032900397         5.012500076
    -0.000000000         0.000000000        -1.713653922
    12.509444093        21.666988671        -1.713653922
    12.509440566       -21.666990707        -1.713653922
    25.018884659        -0.000002036        -1.713653922
    11.258499684        19.500289804        -1.713653922
    23.767940250        -2.166700904        -1.713653922
    10.007555274        17.333590937        -1.713653922
    22.516995840        -4.333399771        -1.713653922
    11.258496509       -19.500291636        -1.713653922
    23.767940602         2.166697034        -1.713653922
    22.516996193        -0.000001833        -1.713653922
    21.266051784        -2.166700700        -1.713653922
    10.007552453       -17.333592566        -1.713653922
    22.516996546         4.333396105        -1.713653922
    21.266052136         2.166697238        -1.713653922
    20.015107727        -0.000001629        -1.713653922
     1.250944409         2.166698867        -1.713653922
    13.760384975       -19.500291840        -1.713653922
    12.509440919       -17.333592769        -1.713653922
    11.258496862       -15.166893699        -1.713653922
     2.501888819         4.333397734        -1.713653922
    15.011329384       -17.333592973        -1.713653922
    13.760385328       -15.166893902        -1.713653922
    12.509441271       -13.000194832        -1.713653922
     3.752833228         6.500096601        -1.713653922
    16.262273794       -15.166894106        -1.713653922
    15.011329737       -13.000195035        -1.713653922
    13.760385681       -10.833495964        -1.713653922
     5.003777637         8.666795468        -1.713653922
    17.513218203       -13.000195239        -1.713653922
    16.262274146       -10.833496168        -1.713653922
    15.011330090        -8.666797097        -1.713653922
     6.254722047        10.833494335        -1.713653922
    18.764162612       -10.833496372        -1.713653922
    17.513218556        -8.666797301        -1.713653922
    16.262274499        -6.500098230        -1.713653922
     7.505666456        13.000193202        -1.713653922
    20.015107022        -8.666797505        -1.713653922
    18.764162965        -6.500098434        -1.713653922
    17.513218908        -4.333399363        -1.713653922
     8.756610865        15.166892069        -1.713653922
    21.266051431        -6.500098638        -1.713653922
    20.015107374        -4.333399567        -1.713653922
    18.764163318        -2.166700496        -1.713653922
     1.250944057        -2.166699071        -1.713653922
    13.760388150        19.500289600        -1.713653922
    12.509443740        17.333590733        -1.713653922
    11.258499331        15.166891866        -1.713653922
     2.501888466        -0.000000204        -1.713653922
     3.752832875         2.166698663        -1.713653922
     5.003777284         4.333397530        -1.713653922
     6.254721694         6.500096398        -1.713653922
     7.505666103         8.666795265        -1.713653922
     8.756610512        10.833494132        -1.713653922
    10.007554922        13.000192999        -1.713653922
     2.501888113        -4.333398141        -1.713653922
    15.011332206        17.333590529        -1.713653922
    13.760387797        15.166891662        -1.713653922
    12.509443388        13.000192795        -1.713653922
     3.752832522        -2.166699274        -1.713653922
     5.003776932        -0.000000407        -1.713653922
     6.254721341         2.166698460        -1.713653922
     7.505665750         4.333397327        -1.713653922
     8.756610160         6.500096194        -1.713653922
    10.007554569         8.666795061        -1.713653922
    11.258498978        10.833493928        -1.713653922
     3.752832170        -6.500097212        -1.713653922
    16.262276263        15.166891459        -1.713653922
    15.011331853        13.000192591        -1.713653922
    13.760387444        10.833493724        -1.713653922
     5.003776579        -4.333398345        -1.713653922
     6.254720988        -2.166699478        -1.713653922
     7.505665398        -0.000000611        -1.713653922
     8.756609807         2.166698256        -1.713653922
    10.007554216         4.333397123        -1.713653922
    11.258498626         6.500095990        -1.713653922
    12.509443035         8.666794857        -1.713653922
     5.003776226        -8.666796283        -1.713653922
    17.513220319        13.000192388        -1.713653922
    16.262275910        10.833493521        -1.713653922
    15.011331501         8.666794654        -1.713653922
     6.254720636        -6.500097416        -1.713653922
     7.505665045        -4.333398549        -1.713653922
     8.756609454        -2.166699682        -1.713653922
    10.007553864        -0.000000815        -1.713653922
    11.258498273         2.166698052        -1.713653922
    12.509442682         4.333396920        -1.713653922
    13.760387091         6.500095787        -1.713653922
     6.254720283       -10.833495354        -1.713653922
    18.764164376        10.833493317        -1.713653922
    17.513219967         8.666794450        -1.713653922
    16.262275557         6.500095583        -1.713653922
     7.505664692        -8.666796486        -1.713653922
     8.756609101        -6.500097619        -1.713653922
    10.007553511        -4.333398752        -1.713653922
    11.258497920        -2.166699885        -1.713653922
    12.509442329        -0.000001018        -1.713653922
    13.760386739         2.166697849        -1.713653922
    15.011331148         4.333396716        -1.713653922
     7.505664339       -13.000194424        -1.713653922
    20.015108432         8.666794246        -1.713653922
    18.764164023         6.500095379        -1.713653922
    17.513219614         4.333396512        -1.713653922
     8.756608749       -10.833495557        -1.713653922
    10.007553158        -8.666796690        -1.713653922
    11.258497567        -6.500097823        -1.713653922
    12.509441977        -4.333398956        -1.713653922
    13.760386386        -2.166700089        -1.713653922
    15.011330795        -0.000001222        -1.713653922
    16.262275205         2.166697645        -1.713653922
     8.756608396       -15.166893495        -1.713653922
    21.266052489         6.500095176        -1.713653922
    20.015108080         4.333396309        -1.713653922
    18.764163670         2.166697442        -1.713653922
    10.007552805       -13.000194628        -1.713653922
    11.258497215       -10.833495761        -1.713653922
    12.509441624        -8.666796894        -1.713653922
    13.760386033        -6.500098027        -1.713653922
    15.011330443        -4.333399160        -1.713653922
    16.262274852        -2.166700293        -1.713653922
    17.513219261        -0.000001426        -1.713653922
    -0.000000000         0.000000000        -5.140961766
    12.509444093        21.666988671        -5.140961766
    12.509440566       -21.666990707        -5.140961766
    25.018884659        -0.000002036        -5.140961766
    11.258499684        19.500289804        -5.140961766
    23.767940250        -2.166700904        -5.140961766
    10.007555274        17.333590937        -5.140961766
    22.516995840        -4.333399771        -5.140961766
    11.258496509       -19.500291636        -5.140961766
    23.767940602         2.166697034        -5.140961766
    22.516996193        -0.000001833        -5.140961766
    21.266051784        -2.166700700        -5.140961766
    10.007552453       -17.333592566        -5.140961766
    22.516996546         4.333396105        -5.140961766
    21.266052136         2.166697238        -5.140961766
    20.015107727        -0.000001629        -5.140961766
     1.250944409         2.166698867        -5.140961766
    13.760384975       -19.500291840        -5.140961766
    12.509440919       -17.333592769        -5.140961766
    11.258496862       -15.166893699        -5.140961766
     2.501888819         4.333397734        -5.140961766
    15.011329384       -17.333592973        -5.140961766
    13.760385328       -15.166893902        -5.140961766
    12.509441271       -13.000194832        -5.140961766
     3.752833228         6.500096601        -5.140961766
    16.262273794       -15.166894106        -5.140961766
    15.011329737       -13.000195035        -5.140961766
    13.760385681       -10.833495964        -5.140961766
     5.003777637         8.666795468        -5.140961766
    17.513218203       -13.000195239        -5.140961766
    16.262274146       -10.833496168        -5.140961766
    15.011330090        -8.666797097        -5.140961766
     6.254722047        10.833494335        -5.140961766
    18.764162612       -10.833496372        -5.140961766
    17.513218556        -8.666797301        -5.140961766
    16.262274499        -6.500098230        -5.140961766
     7.505666456        13.000193202        -5.140961766
    20.015107022        -8.666797505        -5.140961766
    18.764162965        -6.500098434        -5.140961766
    17.513218908        -4.333399363        -5.140961766
     8.756610865        15.166892069        -5.140961766
    21.266051431        -6.500098638        -5.140961766
    20.015107374        -4.333399567        -5.140961766
    18.764163318        -2.166700496        -5.140961766
     1.250944057        -2.166699071        -5.140961766
    13.760388150        19.500289600        -5.140961766
    12.509443740        17.333590733        -5.140961766
    11.258499331        15.166891866        -5.140961766
     2.501888466        -0.000000204        -5.140961766
     3.752832875         2.166698663        -5.140961766
     5.003777284         4.333397530        -5.140961766
     6.254721694         6.500096398        -5.140961766
     7.505666103         8.666795265        -5.140961766
     8.756610512        10.833494132        -5.140961766
    10.007554922        13.000192999        -5.140961766
     2.501888113        -4.333398141        -5.140961766
    15.011332206        17.333590529        -5.140961766
    13.760387797        15.166891662        -5.140961766
    12.509443388        13.000192795        -5.140961766
     3.752832522        -2.166699274        -5.140961766
     5.003776932        -0.000000407        -5.140961766
     6.254721341         2.166698460        -5.140961766
     7.505665750         4.333397327        -5.140961766
     8.756610160         6.500096194        -5.140961766
    10.007554569         8.666795061        -5.140961766
    11.258498978        10.833493928        -5.140961766
     3.752832170        -6.500097212        -5.140961766
    16.262276263        15.166891459        -5.140961766
    15.011331853        13.000192591        -5.140961766
    13.760387444        10.833493724        -5.140961766
     5.003776579        -4.333398345        -5.140961766
     6.254720988        -2.166699478        -5.140961766
     7.505665398        -0.000000611        -5.140961766
     8.756609807         2.166698256        -5.140961766
    10.007554216         4.333397123        -5.140961766
    11.258498626         6.500095990        -5.140961766
    12.509443035         8.666794857        -5.140961766
     5.003776226        -8.666796283        -5.140961766
    17.513220319        13.000192388        -5.140961766
    16.262275910        10.833493521        -5.140961766
    15.011331501         8.666794654        -5.140961766
     6.254720636        -6.500097416        -5.140961766
     7.505665045        -4.333398549        -5.140961766
     8.756609454        -2.166699682        -5.140961766
    10.007553864        -0.000000815        -5.140961766
    11.258498273         2.166698052        -5.140961766
    12.509442682         4.333396920        -5.140961766
    13.760387091         6.500095787        -5.140961766
     6.254720283       -10.833495354        -5.140961766
    18.764164376        10.833493317        -5.140961766
    17.513219967         8.666794450        -5.140961766
    16.262275557         6.500095583        -5.140961766
     7.505664692        -8.666796486        -5.140961766
     8.756609101        -6.500097619        -5.140961766
    10.007553511        -4.333398752        -5.140961766
    11.258497920        -2.166699885        -5.140961766
    12.509442329        -0.000001018        -5.140961766
    13.760386739         2.166697849        -5.140961766
    15.011331148         4.333396716        -5.140961766
     7.505664339       -13.000194424        -5.140961766
    20.015108432         8.666794246        -5.140961766
    18.764164023         6.500095379        -5.140961766
    17.513219614         4.333396512        -5.140961766
     8.756608749       -10.833495557        -5.140961766
    10.007553158        -8.666796690        -5.140961766
    11.258497567        -6.500097823        -5.140961766
    12.509441977        -4.333398956        -5.140961766
    13.760386386        -2.166700089        -5.140961766
    15.011330795        -0.000001222        -5.140961766
    16.262275205         2.166697645        -5.140961766
     8.756608396       -15.166893495        -5.140961766
    21.266052489         6.500095176        -5.140961766
    20.015108080         4.333396309        -5.140961766
    18.764163670         2.166697442        -5.140961766
    10.007552805       -13.000194628        -5.140961766
    11.258497215       -10.833495761        -5.140961766
    12.509441624        -8.666796894        -5.140961766
    13.760386033        -6.500098027        -5.140961766
    15.011330443        -4.333399160        -5.140961766
    16.262274852        -2.166700293        -5.140961766
    17.513219261        -0.000001426        -5.140961766
     0.000000000        -0.000000000        18.850193143
    12.509444093        21.666988671        18.850193143
    12.509440566       -21.666990707        18.850193143
    25.018884659        -0.000002036        18.850193143
    11.258499684        19.500289804        18.850193143
    23.767940250        -2.166700904        18.850193143
    10.007555274        17.333590937        18.850193143
    22.516995840        -4.333399771        18.850193143
    11.258496509       -19.500291636        18.850193143
    23.767940602         2.166697034        18.850193143
    22.516996193        -0.000001833        18.850193143
    21.266051784        -2.166700700        18.850193143
    10.007552453       -17.333592566        18.850193143
    22.516996546         4.333396105        18.850193143
    21.266052136         2.166697238        18.850193143
    20.015107727        -0.000001629        18.850193143
     1.250944409         2.166698867        18.850193143
    13.760384975       -19.500291840        18.850193143
    12.509440919       -17.333592769        18.850193143
    11.258496862       -15.166893699        18.850193143
     2.501888819         4.333397734        18.850193143
    15.011329384       -17.333592973        18.850193143
    13.760385328       -15.166893902        18.850193143
    12.509441271       -13.000194832        18.850193143
     3.752833228         6.500096601        18.850193143
    16.262273794       -15.166894106        18.850193143
    15.011329737       -13.000195035        18.850193143
    13.760385681       -10.833495964        18.850193143
     5.003777637         8.666795468        18.850193143
    17.513218203       -13.000195239        18.850193143
    16.262274146       -10.833496168        18.850193143
    15.011330090        -8.666797097        18.850193143
     6.254722047        10.833494335        18.850193143
    18.764162612       -10.833496372        18.850193143
    17.513218556        -8.666797301        18.850193143
    16.262274499        -6.500098230        18.850193143
     7.505666456        13.000193202        18.850193143
    20.015107022        -8.666797505        18.850193143
    18.764162965        -6.500098434        18.850193143
    17.513218908        -4.333399363        18.850193143
     8.756610865        15.166892069        18.850193143
    21.266051431        -6.500098638        18.850193143
    20.015107374        -4.333399567        18.850193143
    18.764163318        -2.166700496        18.850193143
     1.250944057        -2.166699071        18.850193143
    13.760388150        19.500289600        18.850193143
    12.509443740        17.333590733        18.850193143
    11.258499331        15.166891866        18.850193143
     2.501888466        -0.000000204        18.850193143
     3.752832875         2.166698663        18.850193143
     5.003777284         4.333397530        18.850193143
     6.254721694         6.500096398        18.850193143
     7.505666103         8.666795265        18.850193143
     8.756610512        10.833494132        18.850193143
    10.007554922        13.000192999        18.850193143
     2.501888113        -4.333398141        18.850193143
    15.011332206        17.333590529        18.850193143
    13.760387797        15.166891662        18.850193143
    12.509443388        13.000192795        18.850193143
     3.752832522        -2.166699274        18.850193143
     5.003776932        -0.000000407        18.850193143
     6.254721341         2.166698460        18.850193143
     7.505665750         4.333397327        18.850193143
     8.756610160         6.500096194        18.850193143
    10.007554569         8.666795061        18.850193143
    11.258498978        10.833493928        18.850193143
     3.752832170        -6.500097212        18.850193143
    16.262276263        15.166891459        18.850193143
    15.011331853        13.000192591        18.850193143
    13.760387444        10.833493724        18.850193143
     5.003776579        -4.333398345        18.850193143
     6.254720988        -2.166699478        18.850193143
     7.505665398        -0.000000611        18.850193143
     8.756609807         2.166698256        18.850193143
    10.007554216         4.333397123        18.850193143
    11.258498626         6.500095990        18.850193143
    12.509443035         8.666794857        18.850193143
     5.003776226        -8.666796283        18.850193143
    17.513220319        13.000192388        18.850193143
    16.262275910        10.833493521        18.850193143
    15.011331501         8.666794654        18.850193143
     6.254720636        -6.500097416        18.850193143
     7.505665045        -4.333398549        18.850193143
     8.756609454        -2.166699682        18.850193143
    10.007553864        -0.000000815        18.850193143
    11.258498273         2.166698052        18.850193143
    12.509442682         4.333396920        18.850193143
    13.760387091         6.500095787        18.850193143
     6.254720283       -10.833495354        18.850193143
    18.764164376        10.833493317        18.850193143
    17.513219967         8.666794450        18.850193143
    16.262275557         6.500095583        18.850193143
     7.505664692        -8.666796486        18.850193143
     8.756609101        -6.500097619        18.850193143
    10.007553511        -4.333398752        18.850193143
    11.258497920        -2.166699885        18.850193143
    12.509442329        -0.000001018        18.850193143
    13.760386739         2.166697849        18.850193143
    15.011331148         4.333396716        18.850193143
     7.505664339       -13.000194424        18.850193143
    20.015108432         8.666794246        18.850193143
    18.764164023         6.500095379        18.850193143
    17.513219614         4.333396512        18.850193143
     8.756608749       -10.833495557        18.850193143
    10.007553158        -8.666796690        18.850193143
    11.258497567        -6.500097823        18.850193143
    12.509441977        -4.333398956        18.850193143
    13.760386386        -2.166700089        18.850193143
    15.011330795        -0.000001222        18.850193143
    16.262275205         2.166697645        18.850193143
     8.756608396       -15.166893495        18.850193143
    21.266052489         6.500095176        18.850193143
    20.015108080         4.333396309        18.850193143
    18.764163670         2.166697442        18.850193143
    10.007552805       -13.000194628        18.850193143
    11.258497215       -10.833495761        18.850193143
    12.509441624        -8.666796894        18.850193143
    13.760386033        -6.500098027        18.850193143
    15.011330443        -4.333399160        18.850193143
    16.262274852        -2.166700293        18.850193143
    17.513219261        -0.000001426        18.850193143
     0.000000000        -0.000000000        15.422885299
    12.509444093        21.666988671        15.422885299
    12.509440566       -21.666990707        15.422885299
    25.018884659        -0.000002036        15.422885299
    11.258499684        19.500289804        15.422885299
    23.767940250        -2.166700904        15.422885299
    10.007555274        17.333590937        15.422885299
    22.516995840        -4.333399771        15.422885299
    11.258496509       -19.500291636        15.422885299
    23.767940602         2.166697034        15.422885299
    22.516996193        -0.000001833        15.422885299
    21.266051784        -2.166700700        15.422885299
    10.007552453       -17.333592566        15.422885299
    22.516996546         4.333396105        15.422885299
    21.266052136         2.166697238        15.422885299
    20.015107727        -0.000001629        15.422885299
     1.250944409         2.166698867        15.422885299
    13.760384975       -19.500291840        15.422885299
    12.509440919       -17.333592769        15.422885299
    11.258496862       -15.166893699        15.422885299
     2.501888819         4.333397734        15.422885299
    15.011329384       -17.333592973        15.422885299
    13.760385328       -15.166893902        15.422885299
    12.509441271       -13.000194832        15.422885299
     3.752833228         6.500096601        15.422885299
    16.262273794       -15.166894106        15.422885299
    15.011329737       -13.000195035        15.422885299
    13.760385681       -10.833495964        15.422885299
     5.003777637         8.666795468        15.422885299
    17.513218203       -13.000195239        15.422885299
    16.262274146       -10.833496168        15.422885299
    15.011330090        -8.666797097        15.422885299
     6.254722047        10.833494335        15.422885299
    18.764162612       -10.833496372        15.422885299
    17.513218556        -8.666797301        15.422885299
    16.262274499        -6.500098230        15.422885299
     7.505666456        13.000193202        15.422885299
    20.015107022        -8.666797505        15.422885299
    18.764162965        -6.500098434        15.422885299
    17.513218908        -4.333399363        15.422885299
     8.756610865        15.166892069        15.422885299
    21.266051431        -6.500098638        15.422885299
    20.015107374        -4.333399567        15.422885299
    18.764163318        -2.166700496        15.422885299
     1.250944057        -2.166699071        15.422885299
    13.760388150        19.500289600        15.422885299
    12.509443740        17.333590733        15.422885299
    11.258499331        15.166891866        15.422885299
     2.501888466        -0.000000204        15.422885299
     3.752832875         2.166698663        15.422885299
     5.003777284         4.333397530        15.422885299
     6.254721694         6.500096398        15.422885299
     7.505666103         8.666795265        15.422885299
     8.756610512        10.833494132        15.422885299
    10.007554922        13.000192999        15.422885299
     2.501888113        -4.333398141        15.422885299
    15.011332206        17.333590529        15.422885299
    13.760387797        15.166891662        15.422885299
    12.509443388        13.000192795        15.422885299
     3.752832522        -2.166699274        15.422885299
     5.003776932        -0.000000407        15.422885299
     6.254721341         2.166698460        15.422885299
     7.505665750         4.333397327        15.422885299
     8.756610160         6.500096194        15.422885299
    10.007554569         8.666795061        15.422885299
    11.258498978        10.833493928        15.422885299
     3.752832170        -6.500097212        15.422885299
    16.262276263        15.166891459        15.422885299
    15.011331853        13.000192591        15.422885299
    13.760387444        10.833493724        15.422885299
     5.003776579        -4.333398345        15.422885299
     6.254720988        -2.166699478        15.422885299
     7.505665398        -0.000000611        15.422885299
     8.756609807         2.166698256        15.422885299
    10.007554216         4.333397123        15.422885299
    11.258498626         6.500095990        15.422885299
    12.509443035         8.666794857        15.422885299
     5.003776226        -8.666796283        15.422885299
    17.513220319        13.000192388        15.422885299
    16.262275910        10.833493521        15.422885299
    15.011331501         8.666794654        15.422885299
     6.254720636        -6.500097416        15.422885299
     7.505665045        -4.333398549        15.422885299
     8.756609454        -2.166699682        15.422885299
    10.007553864        -0.000000815        15.422885299
    11.258498273         2.166698052        15.422885299
    12.509442682         4.333396920        15.422885299
    13.760387091         6.500095787        15.422885299
     6.254720283       -10.833495354        15.422885299
    18.764164376        10.833493317        15.422885299
    17.513219967         8.666794450        15.422885299
    16.262275557         6.500095583        15.422885299
     7.505664692        -8.666796486        15.422885299
     8.756609101        -6.500097619        15.422885299
    10.007553511        -4.333398752        15.422885299
    11.258497920        -2.166699885        15.422885299
    12.509442329        -0.000001018        15.422885299
    13.760386739         2.166697849        15.422885299
    15.011331148         4.333396716        15.422885299
     7.505664339       -13.000194424        15.422885299
    20.015108432         8.666794246        15.422885299
    18.764164023         6.500095379        15.422885299
    17.513219614         4.333396512        15.422885299
     8.756608749       -10.833495557        15.422885299
    10.007553158        -8.666796690        15.422885299
    11.258497567        -6.500097823        15.422885299
    12.509441977        -4.333398956        15.422885299
    13.760386386        -2.166700089        15.422885299
    15.011330795        -0.000001222        15.422885299
    16.262275205         2.166697645        15.422885299
     8.756608396       -15.166893495        15.422885299
    21.266052489         6.500095176        15.422885299
    20.015108080         4.333396309        15.422885299
    18.764163670         2.166697442        15.422885299
    10.007552805       -13.000194628        15.422885299
    11.258497215       -10.833495761        15.422885299
    12.509441624        -8.666796894        15.422885299
    13.760386033        -6.500098027        15.422885299
    15.011330443        -4.333399160        15.422885299
    16.262274852        -2.166700293        15.422885299
    17.513219261        -0.000001426        15.422885299
     1.250944174        -0.722233106        -5.140961766
    12.509443858        18.778056698        -5.140961766
    11.258499449        16.611357831        -5.140961766
    12.509440683       -20.222524742        -5.140961766
    23.767940367        -0.722234939        -5.140961766
    22.516995958        -2.888933806        -5.140961766
    11.258496627       -18.055825672        -5.140961766
    22.516996311         1.444464132        -5.140961766
    21.266051901        -0.722234735        -5.140961766
     2.501888583         1.444465761        -5.140961766
    13.760385093       -18.055825875        -5.140961766
    12.509441036       -15.889126805        -5.140961766
     3.752832993         3.611164628        -5.140961766
    15.011329502       -15.889127008        -5.140961766
    13.760385445       -13.722427937        -5.140961766
     5.003777402         5.777863495        -5.140961766
    16.262273911       -13.722428141        -5.140961766
    15.011329855       -11.555729070        -5.140961766
     6.254721811         7.944562362        -5.140961766
    17.513218321       -11.555729274        -5.140961766
    16.262274264        -9.389030203        -5.140961766
     7.505666221        10.111261229        -5.140961766
    18.764162730        -9.389030407        -5.140961766
    17.513218673        -7.222331336        -5.140961766
     8.756610630        12.277960096        -5.140961766
    20.015107139        -7.222331540        -5.140961766
    18.764163083        -5.055632469        -5.140961766
    10.007555039        14.444658964        -5.140961766
    21.266051548        -5.055632673        -5.140961766
    20.015107492        -2.888933602        -5.140961766
     2.501888231        -2.888932177        -5.140961766
    13.760387914        16.611357627        -5.140961766
    12.509443505        14.444658760        -5.140961766
     3.752832640        -0.722233310        -5.140961766
     5.003777049         1.444465558        -5.140961766
     6.254721459         3.611164425        -5.140961766
     7.505665868         5.777863292        -5.140961766
     8.756610277         7.944562159        -5.140961766
    10.007554687        10.111261026        -5.140961766
    11.258499096        12.277959893        -5.140961766
     3.752832287        -5.055631247        -5.140961766
    15.011331971        14.444658556        -5.140961766
    13.760387562        12.277959689        -5.140961766
     5.003776697        -2.888932380        -5.140961766
     6.254721106        -0.722233513        -5.140961766
     7.505665515         1.444465354        -5.140961766
     8.756609925         3.611164221        -5.140961766
    10.007554334         5.777863088        -5.140961766
    11.258498743         7.944561955        -5.140961766
    12.509443152        10.111260822        -5.140961766
     5.003776344        -7.222330318        -5.140961766
    16.262276028        12.277959486        -5.140961766
    15.011331618        10.111260618        -5.140961766
     6.254720753        -5.055631451        -5.140961766
     7.505665162        -2.888932584        -5.140961766
     8.756609572        -0.722233717        -5.140961766
    10.007553981         1.444465150        -5.140961766
    11.258498390         3.611164017        -5.140961766
    12.509442800         5.777862884        -5.140961766
    13.760387209         7.944561751        -5.140961766
     6.254720400        -9.389029389        -5.140961766
    17.513220084        10.111260415        -5.140961766
    16.262275675         7.944561548        -5.140961766
     7.505664810        -7.222330522        -5.140961766
     8.756609219        -5.055631655        -5.140961766
    10.007553628        -2.888932788        -5.140961766
    11.258498038        -0.722233920        -5.140961766
    12.509442447         1.444464947        -5.140961766
    13.760386856         3.611163814        -5.140961766
    15.011331266         5.777862681        -5.140961766
     7.505664457       -11.555728459        -5.140961766
    18.764164141         7.944561344        -5.140961766
    17.513219731         5.777862477        -5.140961766
     8.756608866        -9.389029592        -5.140961766
    10.007553276        -7.222330725        -5.140961766
    11.258497685        -5.055631858        -5.140961766
    12.509442094        -2.888932991        -5.140961766
    13.760386504        -0.722234124        -5.140961766
    15.011330913         1.444464743        -5.140961766
    16.262275322         3.611163610        -5.140961766
     8.756608514       -13.722427530        -5.140961766
    20.015108197         5.777862273        -5.140961766
    18.764163788         3.611163406        -5.140961766
    10.007552923       -11.555728663        -5.140961766
    11.258497332        -9.389029796        -5.140961766
    12.509441742        -7.222330929        -5.140961766
    13.760386151        -5.055632062        -5.140961766
    15.011330560        -2.888933195        -5.140961766
    16.262274969        -0.722234328        -5.140961766
    17.513219379         1.444464539        -5.140961766
    10.007552570       -15.889126601        -5.140961766
    21.266052254         3.611163203        -5.140961766
    20.015107845         1.444464336        -5.140961766
    11.258496980       -13.722427734        -5.140961766
    12.509441389       -11.555728867        -5.140961766
    13.760385798        -9.389030000        -5.140961766
    15.011330207        -7.222331133        -5.140961766
    16.262274617        -5.055632266        -5.140961766
    17.513219026        -2.888933398        -5.140961766
    18.764163435        -0.722234531        -5.140961766
     1.250944292         0.722232902        -1.713653922
    12.509443975        20.222522706        -1.713653922
    11.258499566        18.055823839        -1.713653922
    12.509440801       -18.778058734        -1.713653922
    23.767940485         0.722231069        -1.713653922
    22.516996075        -1.444467798        -1.713653922
    11.258496744       -16.611359663        -1.713653922
    22.516996428         2.888930140        -1.713653922
    21.266052019         0.722231273        -1.713653922
     2.501888701         2.888931769        -1.713653922
    13.760385210       -16.611359867        -1.713653922
    12.509441154       -14.444660796        -1.713653922
     3.752833110         5.055630636        -1.713653922
    15.011329620       -14.444661000        -1.713653922
    13.760385563       -12.277961929        -1.713653922
     5.003777520         7.222329503        -1.713653922
    16.262274029       -12.277962133        -1.713653922
    15.011329972       -10.111263062        -1.713653922
     6.254721929         9.389028371        -1.713653922
    17.513218438       -10.111263266        -1.713653922
    16.262274382        -7.944564195        -1.713653922
     7.505666338        11.555727238        -1.713653922
    18.764162847        -7.944564399        -1.713653922
    17.513218791        -5.777865328        -1.713653922
     8.756610748        13.722426105        -1.713653922
    20.015107257        -5.777865532        -1.713653922
    18.764163200        -3.611166461        -1.713653922
    10.007555157        15.889124972        -1.713653922
    21.266051666        -3.611166665        -1.713653922
    20.015107609        -1.444467594        -1.713653922
     2.501888348        -1.444466168        -1.713653922
    13.760388032        18.055823635        -1.713653922
    12.509443623        15.889124768        -1.713653922
     3.752832758         0.722232699        -1.713653922
     5.003777167         2.888931566        -1.713653922
     6.254721576         5.055630433        -1.713653922
     7.505665986         7.222329300        -1.713653922
     8.756610395         9.389028167        -1.713653922
    10.007554804        11.555727034        -1.713653922
    11.258499213        13.722425901        -1.713653922
     3.752832405        -3.611165239        -1.713653922
    15.011332089        15.889124564        -1.713653922
    13.760387679        13.722425697        -1.713653922
     5.003776814        -1.444466372        -1.713653922
     6.254721223         0.722232495        -1.713653922
     7.505665633         2.888931362        -1.713653922
     8.756610042         5.055630229        -1.713653922
    10.007554451         7.222329096        -1.713653922
    11.258498861         9.389027963        -1.713653922
    12.509443270        11.555726830        -1.713653922
     5.003776461        -5.777864310        -1.713653922
    16.262276145        13.722425494        -1.713653922
    15.011331736        11.555726627        -1.713653922
     6.254720871        -3.611165443        -1.713653922
     7.505665280        -1.444466576        -1.713653922
     8.756609689         0.722232291        -1.713653922
    10.007554099         2.888931158        -1.713653922
    11.258498508         5.055630025        -1.713653922
    12.509442917         7.222328893        -1.713653922
    13.760387327         9.389027760        -1.713653922
     6.254720518        -7.944563381        -1.713653922
    17.513220202        11.555726423        -1.713653922
    16.262275792         9.389027556        -1.713653922
     7.505664927        -5.777864514        -1.713653922
     8.756609337        -3.611165646        -1.713653922
    10.007553746        -1.444466779        -1.713653922
    11.258498155         0.722232088        -1.713653922
    12.509442565         2.888930955        -1.713653922
    13.760386974         5.055629822        -1.713653922
    15.011331383         7.222328689        -1.713653922
     7.505664575       -10.111262451        -1.713653922
    18.764164258         9.389027352        -1.713653922
    17.513219849         7.222328485        -1.713653922
     8.756608984        -7.944563584        -1.713653922
    10.007553393        -5.777864717        -1.713653922
    11.258497803        -3.611165850        -1.713653922
    12.509442212        -1.444466983        -1.713653922
    13.760386621         0.722231884        -1.713653922
    15.011331030         2.888930751        -1.713653922
    16.262275440         5.055629618        -1.713653922
     8.756608631       -12.277961522        -1.713653922
    20.015108315         7.222328282        -1.713653922
    18.764163906         5.055629415        -1.713653922
    10.007553041       -10.111262655        -1.713653922
    11.258497450        -7.944563788        -1.713653922
    12.509441859        -5.777864921        -1.713653922
    13.760386268        -3.611166054        -1.713653922
    15.011330678        -1.444467187        -1.713653922
    16.262275087         0.722231680        -1.713653922
    17.513219496         2.888930547        -1.713653922
    10.007552688       -14.444660593        -1.713653922
    21.266052372         5.055629211        -1.713653922
    20.015107962         2.888930344        -1.713653922
    11.258497097       -12.277961726        -1.713653922
    12.509441506       -10.111262859        -1.713653922
    13.760385916        -7.944563992        -1.713653922
    15.011330325        -5.777865124        -1.713653922
    16.262274734        -3.611166257        -1.713653922
    17.513219144        -1.444467390        -1.713653922
    18.764163553         0.722231477        -1.713653922
    -1.250944174         0.722233106        -1.713653922
    -0.000000118        -1.444465965        -1.713653922
    11.258499919        22.389221777        -1.713653922
    13.760388385        22.389221573        -1.713653922
    11.258496392       -20.944757601        -1.713653922
    12.509440448       -23.111456672        -1.713653922
    13.760384858       -20.944757805        -1.713653922
    25.018884541        -1.444468001        -1.713653922
    26.269828951         0.722230866        -1.713653922
    10.007555510        20.222522909        -1.713653922
    23.767940132        -3.611166868        -1.713653922
     8.756611100        18.055824042        -1.713653922
    22.516995723        -5.777865735        -1.713653922
    10.007552335       -18.778058531        -1.713653922
    25.018884894         2.888929937        -1.713653922
     8.756608278       -16.611359460        -1.713653922
    23.767940837         5.055629007        -1.713653922
     0.000000235         2.888931973        -1.713653922
    15.011329267       -18.778058938        -1.713653922
     1.250944644         5.055630840        -1.713653922
    16.262273676       -16.611360071        -1.713653922
     2.501889054         7.222329707        -1.713653922
    17.513218085       -14.444661204        -1.713653922
     3.752833463         9.389028574        -1.713653922
    18.764162495       -12.277962337        -1.713653922
     5.003777872        11.555727441        -1.713653922
    20.015106904       -10.111263470        -1.713653922
     6.254722282        13.722426308        -1.713653922
    21.266051313        -7.944564602        -1.713653922
     7.505666691        15.889125175        -1.713653922
     1.250943939        -3.611165036        -1.713653922
    15.011332441        20.222522502        -1.713653922
     2.501887996        -5.777864106        -1.713653922
    16.262276498        18.055823431        -1.713653922
     3.752832052        -7.944563177        -1.713653922
    17.513220554        15.889124361        -1.713653922
     5.003776109       -10.111262248        -1.713653922
    18.764164611        13.722425290        -1.713653922
     6.254720165       -12.277961318        -1.713653922
    20.015108668        11.555726219        -1.713653922
     7.505664222       -14.444660389        -1.713653922
    21.266052724         9.389027149        -1.713653922
    22.516996781         7.222328078        -1.713653922
    -1.250944292        -0.722232902        -5.140961766
     0.000000118         1.444465965        -5.140961766
    11.258499801        20.944755768        -5.140961766
    12.509444211        23.111454635        -5.140961766
    13.760388267        20.944755565        -5.140961766
    11.258496274       -22.389223609        -5.140961766
    13.760384740       -22.389223813        -5.140961766
    25.018884776         1.444463928        -5.140961766
    26.269828833        -0.722235142        -5.140961766
    10.007555392        18.778056901        -5.140961766
    25.018884424        -2.888934009        -5.140961766
     8.756610983        16.611358034        -5.140961766
    23.767940014        -5.055632876        -5.140961766
    10.007552217       -20.222524539        -5.140961766
    23.767940720         3.611162999        -5.140961766
     8.756608161       -18.055825468        -5.140961766
    22.516996663         5.777862070        -5.140961766
     1.250944527         3.611164832        -5.140961766
    15.011329149       -20.222524946        -5.140961766
     2.501888936         5.777863699        -5.140961766
    16.262273559       -18.055826079        -5.140961766
     3.752833345         7.944562566        -5.140961766
    17.513217968       -15.889127212        -5.140961766
     5.003777755        10.111261433        -5.140961766
    18.764162377       -13.722428345        -5.140961766
     6.254722164        12.277960300        -5.140961766
    20.015106786       -11.555729478        -5.140961766
     7.505666573        14.444659167        -5.140961766
    21.266051196        -9.389030611        -5.140961766
    22.516995605        -7.222331744        -5.140961766
    -0.000000235        -2.888931973        -5.140961766
    15.011332324        18.778056494        -5.140961766
     1.250943821        -5.055631044        -5.140961766
    16.262276380        16.611357423        -5.140961766
     2.501887878        -7.222330114        -5.140961766
    17.513220437        14.444658353        -5.140961766
     3.752831935        -9.389029185        -5.140961766
    18.764164493        12.277959282        -5.140961766
     5.003775991       -11.555728256        -5.140961766
    20.015108550        10.111260211        -5.140961766
     6.254720048       -13.722427327        -5.140961766
    21.266052607         7.944561140        -5.140961766
     7.505664104       -15.889126397        -5.140961766
     1.250944174        -0.722233106        15.422885299
    12.509443858        18.778056698        15.422885299
    11.258499449        16.611357831        15.422885299
    12.509440683       -20.222524742        15.422885299
    23.767940367        -0.722234939        15.422885299
    22.516995958        -2.888933806        15.422885299
    11.258496627       -18.055825672        15.422885299
    22.516996311         1.444464132        15.422885299
    21.266051901        -0.722234735        15.422885299
     2.501888583         1.444465761        15.422885299
    13.760385093       -18.055825875        15.422885299
    12.509441036       -15.889126805        15.422885299
     3.752832993         3.611164628        15.422885299
    15.011329502       -15.889127008        15.422885299
    13.760385445       -13.722427937        15.422885299
     5.003777402         5.777863495        15.422885299
    16.262273911       -13.722428141        15.422885299
    15.011329855       -11.555729070        15.422885299
     6.254721811         7.944562362        15.422885299
    17.513218321       -11.555729274        15.422885299
    16.262274264        -9.389030203        15.422885299
     7.505666221        10.111261229        15.422885299
    18.764162730        -9.389030407        15.422885299
    17.513218673        -7.222331336        15.422885299
     8.756610630        12.277960096        15.422885299
    20.015107139        -7.222331540        15.422885299
    18.764163083        -5.055632469        15.422885299
    10.007555039        14.444658964        15.422885299
    21.266051548        -5.055632673        15.422885299
    20.015107492        -2.888933602        15.422885299
     2.501888231        -2.888932177        15.422885299
    13.760387914        16.611357627        15.422885299
    12.509443505        14.444658760        15.422885299
     3.752832640        -0.722233310        15.422885299
     5.003777049         1.444465558        15.422885299
     6.254721459         3.611164425        15.422885299
     7.505665868         5.777863292        15.422885299
     8.756610277         7.944562159        15.422885299
    10.007554687        10.111261026        15.422885299
    11.258499096        12.277959893        15.422885299
     3.752832287        -5.055631247        15.422885299
    15.011331971        14.444658556        15.422885299
    13.760387562        12.277959689        15.422885299
     5.003776697        -2.888932380        15.422885299
     6.254721106        -0.722233513        15.422885299
     7.505665515         1.444465354        15.422885299
     8.756609925         3.611164221        15.422885299
    10.007554334         5.777863088        15.422885299
    11.258498743         7.944561955        15.422885299
    12.509443152        10.111260822        15.422885299
     5.003776344        -7.222330318        15.422885299
    16.262276028        12.277959486        15.422885299
    15.011331618        10.111260618        15.422885299
     6.254720753        -5.055631451        15.422885299
     7.505665162        -2.888932584        15.422885299
     8.756609572        -0.722233717        15.422885299
    10.007553981         1.444465150        15.422885299
    11.258498390         3.611164017        15.422885299
    12.509442800         5.777862884        15.422885299
    13.760387209         7.944561751        15.422885299
     6.254720400        -9.389029389        15.422885299
    17.513220084        10.111260415        15.422885299
    16.262275675         7.944561548        15.422885299
     7.505664810        -7.222330522        15.422885299
     8.756609219        -5.055631655        15.422885299
    10.007553628        -2.888932788        15.422885299
    11.258498038        -0.722233920        15.422885299
    12.509442447         1.444464947        15.422885299
    13.760386856         3.611163814        15.422885299
    15.011331266         5.777862681        15.422885299
     7.505664457       -11.555728459        15.422885299
    18.764164141         7.944561344        15.422885299
    17.513219731         5.777862477        15.422885299
     8.756608866        -9.389029592        15.422885299
    10.007553276        -7.222330725        15.422885299
    11.258497685        -5.055631858        15.422885299
    12.509442094        -2.888932991        15.422885299
    13.760386504        -0.722234124        15.422885299
    15.011330913         1.444464743        15.422885299
    16.262275322         3.611163610        15.422885299
     8.756608514       -13.722427530        15.422885299
    20.015108197         5.777862273        15.422885299
    18.764163788         3.611163406        15.422885299
    10.007552923       -11.555728663        15.422885299
    11.258497332        -9.389029796        15.422885299
    12.509441742        -7.222330929        15.422885299
    13.760386151        -5.055632062        15.422885299
    15.011330560        -2.888933195        15.422885299
    16.262274969        -0.722234328        15.422885299
    17.513219379         1.444464539        15.422885299
    10.007552570       -15.889126601        15.422885299
    21.266052254         3.611163203        15.422885299
    20.015107845         1.444464336        15.422885299
    11.258496980       -13.722427734        15.422885299
    12.509441389       -11.555728867        15.422885299
    13.760385798        -9.389030000        15.422885299
    15.011330207        -7.222331133        15.422885299
    16.262274617        -5.055632266        15.422885299
    17.513219026        -2.888933398        15.422885299
    18.764163435        -0.722234531        15.422885299
     1.250944292         0.722232902        18.850193143
    12.509443975        20.222522706        18.850193143
    11.258499566        18.055823839        18.850193143
    12.509440801       -18.778058734        18.850193143
    23.767940485         0.722231069        18.850193143
    22.516996075        -1.444467798        18.850193143
    11.258496744       -16.611359663        18.850193143
    22.516996428         2.888930140        18.850193143
    21.266052019         0.722231273        18.850193143
     2.501888701         2.888931769        18.850193143
    13.760385210       -16.611359867        18.850193143
    12.509441154       -14.444660796        18.850193143
     3.752833110         5.055630636        18.850193143
    15.011329620       -14.444661000        18.850193143
    13.760385563       -12.277961929        18.850193143
     5.003777520         7.222329503        18.850193143
    16.262274029       -12.277962133        18.850193143
    15.011329972       -10.111263062        18.850193143
     6.254721929         9.389028371        18.850193143
    17.513218438       -10.111263266        18.850193143
    16.262274382        -7.944564195        18.850193143
     7.505666338        11.555727238        18.850193143
    18.764162847        -7.944564399        18.850193143
    17.513218791        -5.777865328        18.850193143
     8.756610748        13.722426105        18.850193143
    20.015107257        -5.777865532        18.850193143
    18.764163200        -3.611166461        18.850193143
    10.007555157        15.889124972        18.850193143
    21.266051666        -3.611166665        18.850193143
    20.015107609        -1.444467594        18.850193143
     2.501888348        -1.444466168        18.850193143
    13.760388032        18.055823635        18.850193143
    12.509443623        15.889124768        18.850193143
     3.752832758         0.722232699        18.850193143
     5.003777167         2.888931566        18.850193143
     6.254721576         5.055630433        18.850193143
     7.505665986         7.222329300        18.850193143
     8.756610395         9.389028167        18.850193143
    10.007554804        11.555727034        18.850193143
    11.258499213        13.722425901        18.850193143
     3.752832405        -3.611165239        18.850193143
    15.011332089        15.889124564        18.850193143
    13.760387679        13.722425697        18.850193143
     5.003776814        -1.444466372        18.850193143
     6.254721223         0.722232495        18.850193143
     7.505665633         2.888931362        18.850193143
     8.756610042         5.055630229        18.850193143
    10.007554451         7.222329096        18.850193143
    11.258498861         9.389027963        18.850193143
    12.509443270        11.555726830        18.850193143
     5.003776461        -5.777864310        18.850193143
    16.262276145        13.722425494        18.850193143
    15.011331736        11.555726627        18.850193143
     6.254720871        -3.611165443        18.850193143
     7.505665280        -1.444466576        18.850193143
     8.756609689         0.722232291        18.850193143
    10.007554099         2.888931158        18.850193143
    11.258498508         5.055630025        18.850193143
    12.509442917         7.222328893        18.850193143
    13.760387327         9.389027760        18.850193143
     6.254720518        -7.944563381        18.850193143
    17.513220202        11.555726423        18.850193143
    16.262275792         9.389027556        18.850193143
     7.505664927        -5.777864514        18.850193143
     8.756609337        -3.611165646        18.850193143
    10.007553746        -1.444466779        18.850193143
    11.258498155         0.722232088        18.850193143
    12.509442565         2.888930955        18.850193143
    13.760386974         5.055629822        18.850193143
    15.011331383         7.222328689        18.850193143
     7.505664575       -10.111262451        18.850193143
    18.764164258         9.389027352        18.850193143
    17.513219849         7.222328485        18.850193143
     8.756608984        -7.944563584        18.850193143
    10.007553393        -5.777864717        18.850193143
    11.258497803        -3.611165850        18.850193143
    12.509442212        -1.444466983        18.850193143
    13.760386621         0.722231884        18.850193143
    15.011331030         2.888930751        18.850193143
    16.262275440         5.055629618        18.850193143
     8.756608631       -12.277961522        18.850193143
    20.015108315         7.222328282        18.850193143
    18.764163906         5.055629415        18.850193143
    10.007553041       -10.111262655        18.850193143
    11.258497450        -7.944563788        18.850193143
    12.509441859        -5.777864921        18.850193143
    13.760386268        -3.611166054        18.850193143
    15.011330678        -1.444467187        18.850193143
    16.262275087         0.722231680        18.850193143
    17.513219496         2.888930547        18.850193143
    10.007552688       -14.444660593        18.850193143
    21.266052372         5.055629211        18.850193143
    20.015107962         2.888930344        18.850193143
    11.258497097       -12.277961726        18.850193143
    12.509441506       -10.111262859        18.850193143
    13.760385916        -7.944563992        18.850193143
    15.011330325        -5.777865124        18.850193143
    16.262274734        -3.611166257        18.850193143
    17.513219144        -1.444467390        18.850193143
    18.764163553         0.722231477        18.850193143
    -1.250944174         0.722233106        18.850193143
    -0.000000118        -1.444465965        18.850193143
    11.258499919        22.389221777        18.850193143
    13.760388385        22.389221573        18.850193143
    11.258496392       -20.944757601        18.850193143
    12.509440448       -23.111456672        18.850193143
    13.760384858       -20.944757805        18.850193143
    25.018884541        -1.444468001        18.850193143
    26.269828951         0.722230866        18.850193143
    10.007555510        20.222522909        18.850193143
    23.767940132        -3.611166868        18.850193143
     8.756611100        18.055824042        18.850193143
    22.516995723        -5.777865735        18.850193143
    10.007552335       -18.778058531        18.850193143
    25.018884894         2.888929937        18.850193143
     8.756608278       -16.611359460        18.850193143
    23.767940837         5.055629007        18.850193143
     0.000000235         2.888931973        18.850193143
    15.011329267       -18.778058938        18.850193143
     1.250944644         5.055630840        18.850193143
    16.262273676       -16.611360071        18.850193143
     2.501889054         7.222329707        18.850193143
    17.513218085       -14.444661204        18.850193143
     3.752833463         9.389028574        18.850193143
    18.764162495       -12.277962337        18.850193143
     5.003777872        11.555727441        18.850193143
    20.015106904       -10.111263470        18.850193143
     6.254722282        13.722426308        18.850193143
    21.266051313        -7.944564602        18.850193143
     7.505666691        15.889125175        18.850193143
     1.250943939        -3.611165036        18.850193143
    15.011332441        20.222522502        18.850193143
     2.501887996        -5.777864106        18.850193143
    16.262276498        18.055823431        18.850193143
     3.752832052        -7.944563177        18.850193143
    17.513220554        15.889124361        18.850193143
     5.003776109       -10.111262248        18.850193143
    18.764164611        13.722425290        18.850193143
     6.254720165       -12.277961318        18.850193143
    20.015108668        11.555726219        18.850193143
     7.505664222       -14.444660389        18.850193143
    21.266052724         9.389027149        18.850193143
    22.516996781         7.222328078        18.850193143
    -1.250944292        -0.722232902        15.422885299
     0.000000118         1.444465965        15.422885299
    11.258499801        20.944755768        15.422885299
    12.509444211        23.111454635        15.422885299
    13.760388267        20.944755565        15.422885299
    11.258496274       -22.389223609        15.422885299
    13.760384740       -22.389223813        15.422885299
    25.018884776         1.444463928        15.422885299
    26.269828833        -0.722235142        15.422885299
    10.007555392        18.778056901        15.422885299
    25.018884424        -2.888934009        15.422885299
     8.756610983        16.611358034        15.422885299
    23.767940014        -5.055632876        15.422885299
    10.007552217       -20.222524539        15.422885299
    23.767940720         3.611162999        15.422885299
     8.756608161       -18.055825468        15.422885299
    22.516996663         5.777862070        15.422885299
     1.250944527         3.611164832        15.422885299
    15.011329149       -20.222524946        15.422885299
     2.501888936         5.777863699        15.422885299
    16.262273559       -18.055826079        15.422885299
     3.752833345         7.944562566        15.422885299
    17.513217968       -15.889127212        15.422885299
     5.003777755        10.111261433        15.422885299
    18.764162377       -13.722428345        15.422885299
     6.254722164        12.277960300        15.422885299
    20.015106786       -11.555729478        15.422885299
     7.505666573        14.444659167        15.422885299
    21.266051196        -9.389030611        15.422885299
    22.516995605        -7.222331744        15.422885299
    -0.000000235        -2.888931973        15.422885299
    15.011332324        18.778056494        15.422885299
     1.250943821        -5.055631044        15.422885299
    16.262276380        16.611357423        15.422885299
     2.501887878        -7.222330114        15.422885299
    17.513220437        14.444658353        15.422885299
     3.752831935        -9.389029185        15.422885299
    18.764164493        12.277959282        15.422885299
     5.003775991       -11.555728256        15.422885299
    20.015108550        10.111260211        15.422885299
     6.254720048       -13.722427327        15.422885299
    21.266052607         7.944561140        15.422885299
     7.505664104       -15.889126397        15.422885299
     0.000000000        -0.000000000        12.100445657
    11.391516384        19.730681444        12.100445657
    11.391507918       -19.730686332        12.100445657
    22.783024302        -0.000004888        12.100445657
     8.136797417        14.093343888        12.100445657
    19.528305335        -5.637342444        12.100445657
     4.882078450         8.456006333        12.100445657
    16.273586368       -11.274679999        12.100445657
     8.136791370       -14.093347380        12.100445657
    19.528307754         5.637334064        12.100445657
    16.273588787        -0.000003492        12.100445657
    13.018869820        -5.637341047        12.100445657
     4.882074822        -8.456008428        12.100445657
    16.273591206        11.274673016        12.100445657
    13.018872239         5.637335460        12.100445657
     9.764153272        -0.000002095        12.100445657
     1.627359483         2.818668778        12.100445657
    13.018867401       -16.912017554        12.100445657
     9.764156901        16.912012666        12.100445657
    21.155664818        -2.818673666        12.100445657
     9.764150853       -11.274678602        12.100445657
    17.900948270         2.818665286        12.100445657
     6.509434305        -5.637339650        12.100445657
    14.646231722         8.456004238        12.100445657
     6.509437934        11.274675111        12.100445657
    17.900945851        -8.456011221        12.100445657
    14.646229303        -2.818672269        12.100445657
    11.391512756         2.818666683        12.100445657
     1.627358274        -2.818669476        12.100445657
    13.018874658        16.912011968        12.100445657
     9.764155691        11.274674412        12.100445657
     6.509436724         5.637336857        12.100445657
     9.764149644       -16.912016856        12.100445657
    21.155666028         2.818664588        12.100445657
    17.900947061        -2.818672968        12.100445657
    14.646228094        -8.456010523        12.100445657
     3.254717757        -0.000000698        12.100445657
    11.391515175        14.093343190        12.100445657
    11.391509127       -14.093348078        12.100445657
    19.528306544        -0.000004190        12.100445657
     8.136796208         8.456005635        12.100445657
    16.273587577        -5.637341745        12.100445657
     6.509433096       -11.274677904        12.100445657
    17.900949480         8.456003540        12.100445657
    14.646230513         2.818665984        12.100445657
    11.391511546        -2.818671571        12.100445657
     8.136792579        -8.456009126        12.100445657
    16.273589996         5.637334762        12.100445657
    13.018871030        -0.000002793        12.100445657
     3.254718967         5.637337555        12.100445657
    14.646226884       -14.093348777        12.100445657
    11.391510337        -8.456009825        12.100445657
     8.136793789        -2.818670873        12.100445657
     4.882077241         2.818668079        12.100445657
    13.018868610       -11.274679301        12.100445657
     9.764152063        -5.637340349        12.100445657
     3.254716548        -5.637338952        12.100445657
    14.646232932        14.093342492        12.100445657
    11.391513965         8.456004936        12.100445657
     8.136794998         2.818667381        12.100445657
     4.882076031        -2.818670174        12.100445657
    13.018873449        11.274673714        12.100445657
     9.764154482         5.637336159        12.100445657
     6.509435515        -0.000001397        12.100445657
     0.000000000        -0.000000000         8.686287497
    11.391516384        19.730681444         8.686287497
    11.391507918       -19.730686332         8.686287497
    22.783024302        -0.000004888         8.686287497
     8.136797417        14.093343888         8.686287497
    19.528305335        -5.637342444         8.686287497
     4.882078450         8.456006333         8.686287497
    16.273586368       -11.274679999         8.686287497
     8.136791370       -14.093347380         8.686287497
    19.528307754         5.637334064         8.686287497
    16.273588787        -0.000003492         8.686287497
    13.018869820        -5.637341047         8.686287497
     4.882074822        -8.456008428         8.686287497
    16.273591206        11.274673016         8.686287497
    13.018872239         5.637335460         8.686287497
     9.764153272        -0.000002095         8.686287497
     1.627359483         2.818668778         8.686287497
    13.018867401       -16.912017554         8.686287497
     9.764156901        16.912012666         8.686287497
    21.155664818        -2.818673666         8.686287497
     9.764150853       -11.274678602         8.686287497
    17.900948270         2.818665286         8.686287497
     6.509434305        -5.637339650         8.686287497
    14.646231722         8.456004238         8.686287497
     6.509437934        11.274675111         8.686287497
    17.900945851        -8.456011221         8.686287497
    14.646229303        -2.818672269         8.686287497
    11.391512756         2.818666683         8.686287497
     1.627358274        -2.818669476         8.686287497
    13.018874658        16.912011968         8.686287497
     9.764155691        11.274674412         8.686287497
     6.509436724         5.637336857         8.686287497
     9.764149644       -16.912016856         8.686287497
    21.155666028         2.818664588         8.686287497
    17.900947061        -2.818672968         8.686287497
    14.646228094        -8.456010523         8.686287497
     3.254717757        -0.000000698         8.686287497
    11.391515175        14.093343190         8.686287497
    11.391509127       -14.093348078         8.686287497
    19.528306544        -0.000004190         8.686287497
     8.136796208         8.456005635         8.686287497
    16.273587577        -5.637341745         8.686287497
     6.509433096       -11.274677904         8.686287497
    17.900949480         8.456003540         8.686287497
    14.646230513         2.818665984         8.686287497
    11.391511546        -2.818671571         8.686287497
     8.136792579        -8.456009126         8.686287497
    16.273589996         5.637334762         8.686287497
    13.018871030        -0.000002793         8.686287497
     3.254718967         5.637337555         8.686287497
    14.646226884       -14.093348777         8.686287497
    11.391510337        -8.456009825         8.686287497
     8.136793789        -2.818670873         8.686287497
     4.882077241         2.818668079         8.686287497
    13.018868610       -11.274679301         8.686287497
     9.764152063        -5.637340349         8.686287497
     3.254716548        -5.637338952         8.686287497
    14.646232932        14.093342492         8.686287497
    11.391513965         8.456004936         8.686287497
     8.136794998         2.818667381         8.686287497
     4.882076031        -2.818670174         8.686287497
    13.018873449        11.274673714         8.686287497
     9.764154482         5.637336159         8.686287497
     6.509435515        -0.000001397         8.686287497
